25 50
1 2 1
1 6 5
2 3 3
2 7 5
3 4 1
3 8 4
4 5 4
4 9 3
5 10 1
6 7 2
6 11 2
7 8 5
7 12 5
8 9 1
8 13 5
9 10 2
9 14 5
10 15 1
11 12 3
11 16 5
12 13 1
12 17 2
13 14 4
13 18 5
14 15 1
14 19 2
15 20 3
16 17 2
16 21 3
17 18 5
17 22 2
18 19 1
18 23 4
19 20 3
19 24 5
20 25 1
21 22 1
22 23 1
23 24 3
24 25 1
1 21 4
2 22 4
3 23 3
4 24 3
5 25 5
1 5 4
6 10 3
11 15 4
16 20 5
21 25 5
